50
68.75
0 1 1 0.25
0 2 1 0.24
0 3 1 0.25
0 4 1 0.25
0 5 2 0.25
0 6 2 0.25
0 7 1 0.25
0 8 2 0.25
0 9 1 0.25
0 10 1 0.25
0 11 1 0.25
0 12 1 0.25
0 13 1 0.25
0 14 1 0.25
0 15 2 0.25
0 16 1 0.25
0 17 1 0.25
0 18 1 0.25
0 19 1 0.25
0 20 1 0.25
0 21 1 0.25
0 22 1 0.25
0 23 1 0.25
0 24 2 0.25
0 25 2 0.25
0 26 2 0.25
0 27 1 0.25
0 28 1 0.25
0 29 1 0.25
0 30 1 0.25
0 31 1 0.25
0 32 1 0.25
0 33 1 0.25
0 34 1 0.25
0 35 2 0.25
0 36 1 0.25
0 37 1 0.25
0 38 1 0.25
0 39 1 0.25
0 40 1 0.25
0 41 1 0.25
0 42 1 0.25
0 43 1 0.25
0 44 2 0.25
0 45 1 0.25
0 46 1 0.25
0 47 1 0.25
0 48 1 0.25
0 49 2 0.25
1 2 1 0.25
1 3 2 0.25
1 4 1 0.25
1 5 1 0.25
1 6 1 0.25
1 7 2 0.25
1 8 1 0.25
1 9 2 0.25
1 10 1 0.25
1 11 1 0.25
1 12 1 0.25
1 13 1 0.25
1 14 2 0.25
1 15 1 0.25
1 16 1 0.25
1 17 2 0.25
1 18 1 0.25
1 19 1 0.25
1 20 1 0.25
1 21 1 0.25
1 22 1 0.25
1 23 1 0.25
1 24 1 0.25
1 25 1 0.25
1 26 1 0.25
1 27 1 0.25
1 28 1 0.25
1 29 1 0.25
1 30 1 0.25
1 31 1 0.25
1 32 2 0.25
1 33 1 0.25
1 34 2 0.25
1 35 1 0.25
1 36 1 0.25
1 37 1 0.25
1 38 1 0.25
1 39 2 0.25
1 40 1 0.25
1 41 2 0.25
1 42 1 0.25
1 43 1 0.25
1 44 1 0.25
1 45 1 0.25
1 46 1 0.25
1 47 2 0.25
1 48 1 0.25
1 49 1 0.25
2 3 1 0.25
2 4 2 0.25
2 5 1 0.25
2 6 1 0.25
2 7 1 0.25
2 8 1 0.25
2 9 1 0.25
2 10 1 0.25
2 11 1 0.25
2 12 1 0.25
2 13 2 0.25
2 14 1 0.25
2 15 1 0.25
2 16 1 0.25
2 17 1 0.25
2 18 1 0.25
2 19 1 0.25
2 20 2 0.25
2 21 1 0.25
2 22 2 0.25
2 23 2 0.25
2 24 1 0.25
2 25 1 0.25
2 26 1 0.25
2 27 2 0.25
2 28 1 0.25
2 29 2 0.25
2 30 1 0.25
2 31 1 0.25
2 32 1 0.25
2 33 1 0.25
2 34 1 0.25
2 35 1 0.25
2 36 1 0.25
2 37 2 0.25
2 38 1 0.25
2 39 1 0.25
2 40 1 0.25
2 41 1 0.25
2 42 2 0.25
2 43 1 0.25
2 44 1 0.25
2 45 1 0.25
2 46 1 0.25
2 47 1 0.25
2 48 2 0.25
2 49 1 0.25
3 4 1 0.25
3 5 1 0.25
3 6 1 0.25
3 7 2 0.25
3 8 1 0.25
3 9 2 0.25
3 10 1 0.25
3 11 1 0.25
3 12 1 0.25
3 13 1 0.25
3 14 2 0.25
3 15 1 0.25
3 16 1 0.25
3 17 2 0.25
3 18 1 0.25
3 19 1 0.25
3 20 1 0.25
3 21 1 0.25
3 22 1 0.25
3 23 1 0.25
3 24 1 0.25
3 25 1 0.25
3 26 1 0.25
3 27 1 0.25
3 28 1 0.25
3 29 1 0.25
3 30 1 0.25
3 31 1 0.25
3 32 2 0.25
3 33 1 0.25
3 34 2 0.25
3 35 1 0.25
3 36 1 0.25
3 37 1 0.25
3 38 1 0.25
3 39 2 0.25
3 40 1 0.25
3 41 2 0.25
3 42 1 0.25
3 43 1 0.25
3 44 1 0.25
3 45 1 0.25
3 46 1 0.25
3 47 2 0.25
3 48 1 0.25
3 49 1 0.25
4 5 1 0.25
4 6 1 0.25
4 7 1 0.25
4 8 1 0.25
4 9 1 0.25
4 10 1 0.25
4 11 1 0.25
4 12 1 0.25
4 13 2 0.25
4 14 1 0.25
4 15 1 0.25
4 16 1 0.25
4 17 1 0.25
4 18 1 0.25
4 19 1 0.25
4 20 2 0.25
4 21 1 0.25
4 22 2 0.25
4 23 2 0.25
4 24 1 0.25
4 25 1 0.25
4 26 1 0.25
4 27 2 0.25
4 28 1 0.25
4 29 2 0.25
4 30 1 0.25
4 31 1 0.25
4 32 1 0.25
4 33 1 0.25
4 34 1 0.25
4 35 1 0.25
4 36 1 0.25
4 37 2 0.25
4 38 1 0.25
4 39 1 0.25
4 40 1 0.25
4 41 1 0.25
4 42 2 0.25
4 43 1 0.25
4 44 1 0.25
4 45 1 0.25
4 46 1 0.25
4 47 1 0.25
4 48 2 0.25
4 49 1 0.25
5 6 2 0.25
5 7 1 0.25
5 8 2 0.25
5 9 1 0.25
5 10 1 0.25
5 11 1 0.25
5 12 1 0.25
5 13 1 0.25
5 14 1 0.25
5 15 2 0.25
5 16 1 0.25
5 17 1 0.25
5 18 1 0.25
5 19 1 0.25
5 20 1 0.25
5 21 1 0.25
5 22 1 0.25
5 23 1 0.25
5 24 2 0.25
5 25 2 0.25
5 26 2 0.25
5 27 1 0.25
5 28 1 0.25
5 29 1 0.25
5 30 1 0.25
5 31 1 0.25
5 32 1 0.25
5 33 1 0.25
5 34 1 0.25
5 35 2 0.25
5 36 1 0.25
5 37 1 0.25
5 38 1 0.25
5 39 1 0.25
5 40 1 0.25
5 41 1 0.25
5 42 1 0.25
5 43 1 0.25
5 44 2 0.25
5 45 1 0.25
5 46 1 0.25
5 47 1 0.25
5 48 1 0.25
5 49 2 0.25
6 7 1 0.25
6 8 2 0.25
6 9 1 0.25
6 10 1 0.25
6 11 1 0.25
6 12 1 0.25
6 13 1 0.25
6 14 1 0.25
6 15 2 0.25
6 16 1 0.25
6 17 1 0.25
6 18 1 0.25
6 19 1 0.25
6 20 1 0.25
6 21 1 0.25
6 22 1 0.25
6 23 1 0.25
6 24 2 0.25
6 25 2 0.25
6 26 2 0.25
6 27 1 0.25
6 28 1 0.25
6 29 1 0.25
6 30 1 0.25
6 31 1 0.25
6 32 1 0.25
6 33 1 0.25
6 34 1 0.25
6 35 2 0.25
6 36 1 0.25
6 37 1 0.25
6 38 1 0.25
6 39 1 0.25
6 40 1 0.25
6 41 1 0.25
6 42 1 0.25
6 43 1 0.25
6 44 2 0.25
6 45 1 0.25
6 46 1 0.25
6 47 1 0.25
6 48 1 0.25
6 49 2 0.25
7 8 1 0.25
7 9 2 0.25
7 10 1 0.25
7 11 1 0.25
7 12 1 0.25
7 13 1 0.25
7 14 2 0.25
7 15 1 0.25
7 16 1 0.25
7 17 2 0.25
7 18 1 0.25
7 19 1 0.25
7 20 1 0.25
7 21 1 0.25
7 22 1 0.25
7 23 1 0.25
7 24 1 0.25
7 25 1 0.25
7 26 1 0.25
7 27 1 0.25
7 28 1 0.25
7 29 1 0.25
7 30 1 0.25
7 31 1 0.25
7 32 2 0.25
7 33 1 0.25
7 34 2 0.25
7 35 1 0.25
7 36 1 0.25
7 37 1 0.25
7 38 1 0.25
7 39 2 0.25
7 40 1 0.25
7 41 2 0.25
7 42 1 0.25
7 43 1 0.25
7 44 1 0.25
7 45 1 0.25
7 46 1 0.25
7 47 2 0.25
7 48 1 0.25
7 49 1 0.25
8 9 1 0.25
8 10 1 0.25
8 11 1 0.25
8 12 1 0.25
8 13 1 0.25
8 14 1 0.25
8 15 2 0.25
8 16 1 0.25
8 17 1 0.25
8 18 1 0.25
8 19 1 0.25
8 20 1 0.25
8 21 1 0.25
8 22 1 0.25
8 23 1 0.25
8 24 2 0.25
8 25 2 0.25
8 26 2 0.25
8 27 1 0.25
8 28 1 0.25
8 29 1 0.25
8 30 1 0.25
8 31 1 0.25
8 32 1 0.25
8 33 1 0.25
8 34 1 0.25
8 35 2 0.25
8 36 1 0.25
8 37 1 0.25
8 38 1 0.25
8 39 1 0.25
8 40 1 0.25
8 41 1 0.25
8 42 1 0.25
8 43 1 0.25
8 44 2 0.25
8 45 1 0.25
8 46 1 0.25
8 47 1 0.25
8 48 1 0.25
8 49 2 0.25
9 10 1 0.25
9 11 1 0.25
9 12 1 0.25
9 13 1 0.25
9 14 2 0.25
9 15 1 0.25
9 16 1 0.25
9 17 2 0.25
9 18 1 0.25
9 19 1 0.25
9 20 1 0.25
9 21 1 0.25
9 22 1 0.25
9 23 1 0.25
9 24 1 0.25
9 25 1 0.25
9 26 1 0.25
9 27 1 0.25
9 28 1 0.25
9 29 1 0.25
9 30 1 0.25
9 31 1 0.25
9 32 2 0.25
9 33 1 0.25
9 34 2 0.25
9 35 1 0.25
9 36 1 0.25
9 37 1 0.25
9 38 1 0.25
9 39 2 0.25
9 40 1 0.25
9 41 2 0.25
9 42 1 0.25
9 43 1 0.25
9 44 1 0.25
9 45 1 0.25
9 46 1 0.25
9 47 2 0.25
9 48 1 0.25
9 49 1 0.25
10 11 1 0.25
10 12 2 0.25
10 13 1 0.25
10 14 1 0.25
10 15 1 0.25
10 16 2 0.25
10 17 1 0.25
10 18 2 0.25
10 19 2 0.25
10 20 1 0.25
10 21 2 0.25
10 22 1 0.25
10 23 1 0.25
10 24 1 0.25
10 25 1 0.25
10 26 1 0.25
10 27 1 0.25
10 28 1 0.25
10 29 1 0.25
10 30 2 0.25
10 31 2 0.25
10 32 1 0.25
10 33 2 0.25
10 34 1 0.25
10 35 1 0.25
10 36 1 0.25
10 37 1 0.25
10 38 1 0.25
10 39 1 0.25
10 40 1 0.25
10 41 1 0.25
10 42 1 0.25
10 43 2 0.25
10 44 1 0.25
10 45 1 0.25
10 46 2 0.25
10 47 1 0.25
10 48 1 0.25
10 49 1 0.25
11 12 1 0.25
11 13 1 0.25
11 14 1 0.25
11 15 1 0.25
11 16 1 0.25
11 17 1 0.25
11 18 1 0.25
11 19 1 0.25
11 20 1 0.25
11 21 1 0.25
11 22 1 0.25
11 23 1 0.25
11 24 1 0.25
11 25 1 0.25
11 26 1 0.25
11 27 1 0.25
11 28 2 0.25
11 29 1 0.25
11 30 1 0.25
11 31 1 0.25
11 32 1 0.25
11 33 1 0.25
11 34 1 0.25
11 35 1 0.25
11 36 2 0.25
11 37 1 0.25
11 38 2 0.25
11 39 1 0.25
11 40 2 0.25
11 41 1 0.25
11 42 1 0.25
11 43 1 0.25
11 44 1 0.25
11 45 2 0.25
11 46 1 0.25
11 47 1 0.25
11 48 1 0.25
11 49 1 0.25
12 13 1 0.25
12 14 1 0.25
12 15 1 0.25
12 16 2 0.25
12 17 1 0.25
12 18 2 0.25
12 19 2 0.25
12 20 1 0.25
12 21 2 0.25
12 22 1 0.25
12 23 1 0.25
12 24 1 0.25
12 25 1 0.25
12 26 1 0.25
12 27 1 0.25
12 28 1 0.25
12 29 1 0.25
12 30 2 0.25
12 31 2 0.25
12 32 1 0.25
12 33 2 0.25
12 34 1 0.25
12 35 1 0.25
12 36 1 0.25
12 37 1 0.25
12 38 1 0.25
12 39 1 0.25
12 40 1 0.25
12 41 1 0.25
12 42 1 0.25
12 43 2 0.25
12 44 1 0.25
12 45 1 0.25
12 46 2 0.25
12 47 1 0.25
12 48 1 0.25
12 49 1 0.25
13 14 1 0.25
13 15 1 0.25
13 16 1 0.25
13 17 1 0.25
13 18 1 0.25
13 19 1 0.25
13 20 2 0.25
13 21 1 0.25
13 22 2 0.25
13 23 2 0.25
13 24 1 0.25
13 25 1 0.25
13 26 1 0.25
13 27 2 0.25
13 28 1 0.25
13 29 2 0.25
13 30 1 0.25
13 31 1 0.25
13 32 1 0.25
13 33 1 0.25
13 34 1 0.25
13 35 1 0.25
13 36 1 0.25
13 37 2 0.25
13 38 1 0.25
13 39 1 0.25
13 40 1 0.25
13 41 1 0.25
13 42 2 0.25
13 43 1 0.25
13 44 1 0.25
13 45 1 0.25
13 46 1 0.25
13 47 1 0.25
13 48 2 0.25
13 49 1 0.25
14 15 1 0.25
14 16 1 0.25
14 17 2 0.25
14 18 1 0.25
14 19 1 0.25
14 20 1 0.25
14 21 1 0.25
14 22 1 0.25
14 23 1 0.25
14 24 1 0.25
14 25 1 0.25
14 26 1 0.25
14 27 1 0.25
14 28 1 0.25
14 29 1 0.25
14 30 1 0.25
14 31 1 0.25
14 32 2 0.25
14 33 1 0.25
14 34 2 0.25
14 35 1 0.25
14 36 1 0.25
14 37 1 0.25
14 38 1 0.25
14 39 2 0.25
14 40 1 0.25
14 41 2 0.25
14 42 1 0.25
14 43 1 0.25
14 44 1 0.25
14 45 1 0.25
14 46 1 0.25
14 47 2 0.25
14 48 1 0.25
14 49 1 0.25
15 16 1 0.25
15 17 1 0.25
15 18 1 0.25
15 19 1 0.25
15 20 1 0.25
15 21 1 0.25
15 22 1 0.25
15 23 1 0.25
15 24 2 0.25
15 25 2 0.25
15 26 2 0.25
15 27 1 0.25
15 28 1 0.25
15 29 1 0.25
15 30 1 0.25
15 31 1 0.25
15 32 1 0.25
15 33 1 0.25
15 34 1 0.25
15 35 2 0.25
15 36 1 0.25
15 37 1 0.25
15 38 1 0.25
15 39 1 0.25
15 40 1 0.25
15 41 1 0.25
15 42 1 0.25
15 43 1 0.25
15 44 2 0.25
15 45 1 0.25
15 46 1 0.25
15 47 1 0.25
15 48 1 0.25
15 49 2 0.25
16 17 1 0.25
16 18 2 0.25
16 19 2 0.25
16 20 1 0.25
16 21 2 0.25
16 22 1 0.25
16 23 1 0.25
16 24 1 0.25
16 25 1 0.25
16 26 1 0.25
16 27 1 0.25
16 28 1 0.25
16 29 1 0.25
16 30 2 0.25
16 31 2 0.25
16 32 1 0.25
16 33 2 0.25
16 34 1 0.25
16 35 1 0.25
16 36 1 0.25
16 37 1 0.25
16 38 1 0.25
16 39 1 0.25
16 40 1 0.25
16 41 1 0.25
16 42 1 0.25
16 43 2 0.25
16 44 1 0.25
16 45 1 0.25
16 46 2 0.25
16 47 1 0.25
16 48 1 0.25
16 49 1 0.25
17 18 1 0.25
17 19 1 0.25
17 20 1 0.25
17 21 1 0.25
17 22 1 0.25
17 23 1 0.25
17 24 1 0.25
17 25 1 0.25
17 26 1 0.25
17 27 1 0.25
17 28 1 0.25
17 29 1 0.25
17 30 1 0.25
17 31 1 0.25
17 32 2 0.25
17 33 1 0.25
17 34 2 0.25
17 35 1 0.25
17 36 1 0.25
17 37 1 0.25
17 38 1 0.25
17 39 2 0.25
17 40 1 0.25
17 41 2 0.25
17 42 1 0.25
17 43 1 0.25
17 44 1 0.25
17 45 1 0.25
17 46 1 0.25
17 47 2 0.25
17 48 1 0.25
17 49 1 0.25
18 19 2 0.25
18 20 1 0.25
18 21 2 0.25
18 22 1 0.25
18 23 1 0.25
18 24 1 0.25
18 25 1 0.25
18 26 1 0.25
18 27 1 0.25
18 28 1 0.25
18 29 1 0.25
18 30 2 0.25
18 31 2 0.25
18 32 1 0.25
18 33 2 0.25
18 34 1 0.25
18 35 1 0.25
18 36 1 0.25
18 37 1 0.25
18 38 1 0.25
18 39 1 0.25
18 40 1 0.25
18 41 1 0.25
18 42 1 0.25
18 43 2 0.25
18 44 1 0.25
18 45 1 0.25
18 46 2 0.25
18 47 1 0.25
18 48 1 0.25
18 49 1 0.25
19 20 1 0.25
19 21 2 0.25
19 22 1 0.25
19 23 1 0.25
19 24 1 0.25
19 25 1 0.25
19 26 1 0.25
19 27 1 0.25
19 28 1 0.25
19 29 1 0.25
19 30 2 0.25
19 31 2 0.25
19 32 1 0.25
19 33 2 0.25
19 34 1 0.25
19 35 1 0.25
19 36 1 0.25
19 37 1 0.25
19 38 1 0.25
19 39 1 0.25
19 40 1 0.25
19 41 1 0.25
19 42 1 0.25
19 43 2 0.25
19 44 1 0.25
19 45 1 0.25
19 46 2 0.25
19 47 1 0.25
19 48 1 0.25
19 49 1 0.25
20 21 1 0.25
20 22 2 0.25
20 23 2 0.25
20 24 1 0.25
20 25 1 0.25
20 26 1 0.25
20 27 2 0.25
20 28 1 0.25
20 29 2 0.25
20 30 1 0.25
20 31 1 0.25
20 32 1 0.25
20 33 1 0.25
20 34 1 0.25
20 35 1 0.25
20 36 1 0.25
20 37 2 0.25
20 38 1 0.25
20 39 1 0.25
20 40 1 0.25
20 41 1 0.25
20 42 2 0.25
20 43 1 0.25
20 44 1 0.25
20 45 1 0.25
20 46 1 0.25
20 47 1 0.25
20 48 2 0.25
20 49 1 0.25
21 22 1 0.25
21 23 1 0.25
21 24 1 0.25
21 25 1 0.25
21 26 1 0.25
21 27 1 0.25
21 28 1 0.25
21 29 1 0.25
21 30 2 0.25
21 31 2 0.25
21 32 1 0.25
21 33 2 0.25
21 34 1 0.25
21 35 1 0.25
21 36 1 0.25
21 37 1 0.25
21 38 1 0.25
21 39 1 0.25
21 40 1 0.25
21 41 1 0.25
21 42 1 0.25
21 43 2 0.25
21 44 1 0.25
21 45 1 0.25
21 46 2 0.25
21 47 1 0.25
21 48 1 0.25
21 49 1 0.25
22 23 2 0.25
22 24 1 0.25
22 25 1 0.25
22 26 1 0.25
22 27 2 0.25
22 28 1 0.25
22 29 2 0.25
22 30 1 0.25
22 31 1 0.25
22 32 1 0.25
22 33 1 0.25
22 34 1 0.25
22 35 1 0.25
22 36 1 0.25
22 37 2 0.25
22 38 1 0.25
22 39 1 0.25
22 40 1 0.25
22 41 1 0.25
22 42 2 0.25
22 43 1 0.25
22 44 1 0.25
22 45 1 0.25
22 46 1 0.25
22 47 1 0.25
22 48 2 0.25
22 49 1 0.25
23 24 1 0.25
23 25 1 0.25
23 26 1 0.25
23 27 2 0.25
23 28 1 0.25
23 29 2 0.25
23 30 1 0.25
23 31 1 0.25
23 32 1 0.25
23 33 1 0.25
23 34 1 0.25
23 35 1 0.25
23 36 1 0.25
23 37 2 0.25
23 38 1 0.25
23 39 1 0.25
23 40 1 0.25
23 41 1 0.25
23 42 2 0.25
23 43 1 0.25
23 44 1 0.25
23 45 1 0.25
23 46 1 0.25
23 47 1 0.25
23 48 2 0.25
23 49 1 0.25
24 25 2 0.25
24 26 2 0.25
24 27 1 0.25
24 28 1 0.25
24 29 1 0.25
24 30 1 0.25
24 31 1 0.25
24 32 1 0.25
24 33 1 0.25
24 34 1 0.25
24 35 2 0.25
24 36 1 0.25
24 37 1 0.25
24 38 1 0.25
24 39 1 0.25
24 40 1 0.25
24 41 1 0.25
24 42 1 0.25
24 43 1 0.25
24 44 2 0.25
24 45 1 0.25
24 46 1 0.25
24 47 1 0.25
24 48 1 0.25
24 49 2 0.25
25 26 2 0.25
25 27 1 0.25
25 28 1 0.25
25 29 1 0.25
25 30 1 0.25
25 31 1 0.25
25 32 1 0.25
25 33 1 0.25
25 34 1 0.25
25 35 2 0.25
25 36 1 0.25
25 37 1 0.25
25 38 1 0.25
25 39 1 0.25
25 40 1 0.25
25 41 1 0.25
25 42 1 0.25
25 43 1 0.25
25 44 2 0.25
25 45 1 0.25
25 46 1 0.25
25 47 1 0.25
25 48 1 0.25
25 49 2 0.25
26 27 1 0.25
26 28 1 0.25
26 29 1 0.25
26 30 1 0.25
26 31 1 0.25
26 32 1 0.25
26 33 1 0.25
26 34 1 0.25
26 35 2 0.25
26 36 1 0.25
26 37 1 0.25
26 38 1 0.25
26 39 1 0.25
26 40 1 0.25
26 41 1 0.25
26 42 1 0.25
26 43 1 0.25
26 44 2 0.25
26 45 1 0.25
26 46 1 0.25
26 47 1 0.25
26 48 1 0.25
26 49 2 0.25
27 28 1 0.25
27 29 2 0.25
27 30 1 0.25
27 31 1 0.25
27 32 1 0.25
27 33 1 0.25
27 34 1 0.25
27 35 1 0.25
27 36 1 0.25
27 37 2 0.25
27 38 1 0.25
27 39 1 0.25
27 40 1 0.25
27 41 1 0.25
27 42 2 0.25
27 43 1 0.25
27 44 1 0.25
27 45 1 0.25
27 46 1 0.25
27 47 1 0.25
27 48 2 0.25
27 49 1 0.25
28 29 1 0.25
28 30 1 0.25
28 31 1 0.25
28 32 1 0.25
28 33 1 0.25
28 34 1 0.25
28 35 1 0.25
28 36 2 0.25
28 37 1 0.25
28 38 2 0.25
28 39 1 0.25
28 40 2 0.25
28 41 1 0.25
28 42 1 0.25
28 43 1 0.25
28 44 1 0.25
28 45 2 0.25
28 46 1 0.25
28 47 1 0.25
28 48 1 0.25
28 49 1 0.25
29 30 1 0.25
29 31 1 0.25
29 32 1 0.25
29 33 1 0.25
29 34 1 0.25
29 35 1 0.25
29 36 1 0.25
29 37 2 0.25
29 38 1 0.25
29 39 1 0.25
29 40 1 0.25
29 41 1 0.25
29 42 2 0.25
29 43 1 0.25
29 44 1 0.25
29 45 1 0.25
29 46 1 0.25
29 47 1 0.25
29 48 2 0.25
29 49 1 0.25
30 31 2 0.25
30 32 1 0.25
30 33 2 0.25
30 34 1 0.25
30 35 1 0.25
30 36 1 0.25
30 37 1 0.25
30 38 1 0.25
30 39 1 0.25
30 40 1 0.25
30 41 1 0.25
30 42 1 0.25
30 43 2 0.25
30 44 1 0.25
30 45 1 0.25
30 46 2 0.25
30 47 1 0.25
30 48 1 0.25
30 49 1 0.25
31 32 1 0.25
31 33 2 0.25
31 34 1 0.25
31 35 1 0.25
31 36 1 0.25
31 37 1 0.25
31 38 1 0.25
31 39 1 0.25
31 40 1 0.25
31 41 1 0.25
31 42 1 0.25
31 43 2 0.25
31 44 1 0.25
31 45 1 0.25
31 46 2 0.25
31 47 1 0.25
31 48 1 0.25
31 49 1 0.25
32 33 1 0.25
32 34 2 0.25
32 35 1 0.25
32 36 1 0.25
32 37 1 0.25
32 38 1 0.25
32 39 2 0.25
32 40 1 0.25
32 41 2 0.25
32 42 1 0.25
32 43 1 0.25
32 44 1 0.25
32 45 1 0.25
32 46 1 0.25
32 47 2 0.25
32 48 1 0.25
32 49 1 0.25
33 34 1 0.25
33 35 1 0.25
33 36 1 0.25
33 37 1 0.25
33 38 1 0.25
33 39 1 0.25
33 40 1 0.25
33 41 1 0.25
33 42 1 0.25
33 43 2 0.25
33 44 1 0.25
33 45 1 0.25
33 46 2 0.25
33 47 1 0.25
33 48 1 0.25
33 49 1 0.25
34 35 1 0.25
34 36 1 0.25
34 37 1 0.25
34 38 1 0.25
34 39 2 0.25
34 40 1 0.25
34 41 2 0.25
34 42 1 0.25
34 43 1 0.25
34 44 1 0.25
34 45 1 0.25
34 46 1 0.25
34 47 2 0.25
34 48 1 0.25
34 49 1 0.25
35 36 1 0.25
35 37 1 0.25
35 38 1 0.25
35 39 1 0.25
35 40 1 0.25
35 41 1 0.25
35 42 1 0.25
35 43 1 0.25
35 44 2 0.25
35 45 1 0.25
35 46 1 0.25
35 47 1 0.25
35 48 1 0.25
35 49 2 0.25
36 37 1 0.25
36 38 2 0.25
36 39 1 0.25
36 40 2 0.25
36 41 1 0.25
36 42 1 0.25
36 43 1 0.25
36 44 1 0.25
36 45 2 0.25
36 46 1 0.25
36 47 1 0.25
36 48 1 0.25
36 49 1 0.25
37 38 1 0.25
37 39 1 0.25
37 40 1 0.25
37 41 1 0.25
37 42 2 0.25
37 43 1 0.25
37 44 1 0.25
37 45 1 0.25
37 46 1 0.25
37 47 1 0.25
37 48 2 0.25
37 49 1 0.25
38 39 1 0.25
38 40 2 0.25
38 41 1 0.25
38 42 1 0.25
38 43 1 0.25
38 44 1 0.25
38 45 2 0.25
38 46 1 0.25
38 47 1 0.25
38 48 1 0.25
38 49 1 0.25
39 40 1 0.25
39 41 2 0.25
39 42 1 0.25
39 43 1 0.25
39 44 1 0.25
39 45 1 0.25
39 46 1 0.25
39 47 2 0.25
39 48 1 0.25
39 49 1 0.25
40 41 1 0.25
40 42 1 0.25
40 43 1 0.25
40 44 1 0.25
40 45 2 0.25
40 46 1 0.25
40 47 1 0.25
40 48 1 0.25
40 49 1 0.25
41 42 1 0.25
41 43 1 0.25
41 44 1 0.25
41 45 1 0.25
41 46 1 0.25
41 47 2 0.25
41 48 1 0.25
41 49 1 0.25
42 43 1 0.25
42 44 1 0.25
42 45 1 0.25
42 46 1 0.25
42 47 1 0.25
42 48 2 0.25
42 49 1 0.25
43 44 1 0.25
43 45 1 0.25
43 46 2 0.25
43 47 1 0.25
43 48 1 0.25
43 49 1 0.25
44 45 1 0.25
44 46 1 0.25
44 47 1 0.25
44 48 1 0.25
44 49 2 0.25
45 46 1 0.25
45 47 1 0.25
45 48 1 0.25
45 49 1 0.25
46 47 1 0.25
46 48 1 0.25
46 49 1 0.25
47 48 1 0.25
47 49 1 0.25
48 49 1 0.25
